22
23 20 25 27 26
72 82 24 88 119 108
89 74 114 110 42 71
30 29 31 28 32
105 118 61 62 63 77
9 17 16 11 14
107 112 98 83 45 46
37 35 36 38 33
56 120 68 70 101 64
21 18 13 22 19
54 94 92 51 102 100
10 7 8 6 12
48 50 59 52 55
91 69 58 86 90 93
40 41 39 44 47
76 78 57
73 80 106 84 43 113
85 97 96 34 79 109
81 116 15 115 117 53
65 103 99 66 87 67
111 95 60 104 49 75
3 4 1 2 5
